c generated by sgen
p cnf 89 188
-2 -3 -4 0
-1 -3 -4 0
-1 -2 -4 0
-1 -2 -3 0
-6 -7 -8 0
-5 -7 -8 0
-5 -6 -8 0
-5 -6 -7 0
-10 -11 -12 0
-9 -11 -12 0
-9 -10 -12 0
-9 -10 -11 0
-14 -15 -16 0
-13 -15 -16 0
-13 -14 -16 0
-13 -14 -15 0
-18 -19 -20 0
-17 -19 -20 0
-17 -18 -20 0
-17 -18 -19 0
-22 -23 -24 0
-21 -23 -24 0
-21 -22 -24 0
-21 -22 -23 0
-26 -27 -28 0
-25 -27 -28 0
-25 -26 -28 0
-25 -26 -27 0
-30 -31 -32 0
-29 -31 -32 0
-29 -30 -32 0
-29 -30 -31 0
-34 -35 -36 0
-33 -35 -36 0
-33 -34 -36 0
-33 -34 -35 0
-38 -39 -40 0
-37 -39 -40 0
-37 -38 -40 0
-37 -38 -39 0
-42 -43 -44 0
-41 -43 -44 0
-41 -42 -44 0
-41 -42 -43 0
-46 -47 -48 0
-45 -47 -48 0
-45 -46 -48 0
-45 -46 -47 0
-50 -51 -52 0
-49 -51 -52 0
-49 -50 -52 0
-49 -50 -51 0
-54 -55 -56 0
-53 -55 -56 0
-53 -54 -56 0
-53 -54 -55 0
-58 -59 -60 0
-57 -59 -60 0
-57 -58 -60 0
-57 -58 -59 0
-62 -63 -64 0
-61 -63 -64 0
-61 -62 -64 0
-61 -62 -63 0
-66 -67 -68 0
-65 -67 -68 0
-65 -66 -68 0
-65 -66 -67 0
-70 -71 -72 0
-69 -71 -72 0
-69 -70 -72 0
-69 -70 -71 0
-74 -75 -76 0
-73 -75 -76 0
-73 -74 -76 0
-73 -74 -75 0
-78 -79 -80 0
-77 -79 -80 0
-77 -78 -80 0
-77 -78 -79 0
-82 -83 -84 0
-81 -83 -84 0
-81 -82 -84 0
-81 -82 -83 0
-85 -86 -87 0
-85 -86 -88 0
-85 -86 -89 0
-85 -87 -88 0
-85 -87 -89 0
-85 -88 -89 0
-86 -87 -88 0
-86 -87 -89 0
-86 -88 -89 0
-87 -88 -89 0
49 28 78 0
74 28 78 0
74 49 78 0
74 49 28 0
29 19 27 0
7 19 27 0
7 29 27 0
7 29 19 0
25 66 42 0
82 66 42 0
82 25 42 0
82 25 66 0
39 83 33 0
46 83 33 0
46 39 33 0
46 39 83 0
11 52 54 0
64 52 54 0
64 11 54 0
64 11 52 0
24 3 15 0
67 3 15 0
67 24 15 0
67 24 3 0
87 8 53 0
60 8 53 0
60 87 53 0
60 87 8 0
21 36 79 0
89 36 79 0
89 21 79 0
89 21 36 0
76 30 65 0
47 30 65 0
47 76 65 0
47 76 30 0
23 16 56 0
41 16 56 0
41 23 56 0
41 23 16 0
77 20 84 0
61 20 84 0
61 77 84 0
61 77 20 0
40 44 10 0
58 44 10 0
58 40 10 0
58 40 44 0
31 85 50 0
2 85 50 0
2 31 50 0
2 31 85 0
45 12 18 0
71 12 18 0
71 45 18 0
71 45 12 0
37 62 68 0
88 62 68 0
88 37 68 0
88 37 62 0
69 59 51 0
81 59 51 0
81 69 51 0
81 69 59 0
75 6 17 0
34 6 17 0
34 75 17 0
34 75 6 0
9 73 13 0
86 73 13 0
86 9 13 0
86 9 73 0
80 43 48 0
1 43 48 0
1 80 48 0
1 80 43 0
5 38 70 0
22 38 70 0
22 5 70 0
22 5 38 0
32 14 57 0
63 14 57 0
63 32 57 0
63 32 14 0
26 35 55 0
26 35 4 0
26 35 72 0
26 55 4 0
26 55 72 0
26 4 72 0
35 55 4 0
35 55 72 0
35 4 72 0
55 4 72 0
